(set-logic QF_S)
(declare-fun _var_0xINPUT_102047_() String)
(declare-fun __woorpje_diseq_pref0_() String)
(declare-fun __woorpje_diseq_suf_l0_() String)
(declare-fun __woorpje_diseq_suf_r0_() String)
(assert (=(str.++  "h0x5LoSlC4" "")(str.++ __woorpje_diseq_pref0_  "o" __woorpje_diseq_suf_l0_  "")) )
(assert (=(str.++ _var_0xINPUT_102047_  "")(str.++ __woorpje_diseq_pref0_  "4" __woorpje_diseq_suf_r0_  "")) )
(check-sat)
